; benchmark generated from python API
(set-info :status unknown)
(declare-fun x_days () Int)
(assert
 (>= x_days (- 36584)))
(assert
 (<= x_days 36829))
(assert
 (>= x_days 8341))
(assert
 (let (($x29 (or (and (= (mod 2000 4) 0) (and (distinct (mod 2000 100) 0) true)) (= (mod 2000 400) 0))))
(let ((?x36 (ite (= 3 2) (ite $x29 31 31) (ite (= 3 1) (ite $x29 0 0) 0))))
(let ((?x40 (ite $x29 60 59)))
(let ((?x41 (ite (= 3 3) ?x40 ?x36)))
(let ((?x46 (ite (= 3 4) (ite $x29 91 90) ?x41)))
(let ((?x52 (ite (= 3 5) (ite $x29 121 120) ?x46)))
(let ((?x58 (ite (= 3 6) (ite $x29 152 151) ?x52)))
(let ((?x64 (ite (= 3 7) (ite $x29 182 181) ?x58)))
(let ((?x70 (ite (= 3 8) (ite $x29 213 212) ?x64)))
(let ((?x76 (ite (= 3 9) (ite $x29 244 243) ?x70)))
(let ((?x82 (ite (= 3 10) (ite $x29 274 273) ?x76)))
(let ((?x88 (ite (= 3 11) (ite $x29 305 304) ?x82)))
(let ((?x16 (- (+ (* 365 (- 2000 1)) (div (- 2000 1) 4)) (div (- 2000 1) 100))))
(let ((?x95 (+ (+ ?x16 (div (- 2000 1) 400)) (ite (= 3 12) (ite $x29 335 334) ?x88))))
(let ((?x97 (+ ?x95 (- 1 1))))
(let ((?x182 (+ x_days ?x97)))
(let ((?x2280 (mod ?x182 146097)))
(let ((?x482 (div ?x2280 36524)))
(let ((?x530 (ite (<= 4 ?x482) 3 ?x482)))
(let ((?x1947 (- ?x2280 (* ?x530 36524))))
(let ((?x884 (mod ?x1947 1461)))
(let ((?x342 (div ?x884 365)))
(let ((?x570 (ite (<= 4 ?x342) 3 ?x342)))
(let ((?x320 (+ (+ (* (div ?x182 146097) 400) (* ?x530 100)) (* (div ?x1947 1461) 4))))
(let ((?x892 (+ (+ ?x320 ?x570) 1)))
(let (($x246 (or (and (= (mod ?x892 4) 0) (and (distinct (mod ?x892 100) 0) true)) (= (mod ?x892 400) 0))))
(let ((?x2772 (- ?x884 (* ?x570 365))))
(let ((?x823 (ite $x246 31 31)))
(let (($x2083 (>= ?x2772 ?x823)))
(let ((?x685 (ite $x2083 (+ (- ?x2772 ?x823) 1) (+ (- ?x2772 (ite $x246 0 0)) 1))))
(let ((?x429 (ite $x246 60 59)))
(let (($x958 (>= ?x2772 ?x429)))
(let ((?x2075 (ite $x246 91 90)))
(let (($x218 (>= ?x2772 ?x2075)))
(let ((?x223 (ite $x218 (+ (- ?x2772 ?x2075) 1) (ite $x958 (+ (- ?x2772 ?x429) 1) ?x685))))
(let ((?x2559 (ite $x246 121 120)))
(let (($x560 (>= ?x2772 ?x2559)))
(let ((?x580 (ite $x246 152 151)))
(let (($x774 (>= ?x2772 ?x580)))
(let ((?x2937 (ite $x774 (+ (- ?x2772 ?x580) 1) (ite $x560 (+ (- ?x2772 ?x2559) 1) ?x223))))
(let ((?x545 (ite $x246 182 181)))
(let (($x1253 (>= ?x2772 ?x545)))
(let ((?x1106 (ite $x246 213 212)))
(let (($x742 (>= ?x2772 ?x1106)))
(let ((?x624 (ite $x742 (+ (- ?x2772 ?x1106) 1) (ite $x1253 (+ (- ?x2772 ?x545) 1) ?x2937))))
(let ((?x118 (ite $x246 244 243)))
(let (($x3057 (>= ?x2772 ?x118)))
(let ((?x3170 (ite $x246 274 273)))
(let (($x2174 (>= ?x2772 ?x3170)))
(let ((?x2819 (ite $x2174 (+ (- ?x2772 ?x3170) 1) (ite $x3057 (+ (- ?x2772 ?x118) 1) ?x624))))
(let ((?x757 (ite $x246 305 304)))
(let (($x3162 (>= ?x2772 ?x757)))
(let ((?x695 (ite $x246 335 334)))
(let (($x541 (>= ?x2772 ?x695)))
(let ((?x411 (ite $x541 (+ (- ?x2772 ?x695) 1) (ite $x3162 (+ (- ?x2772 ?x757) 1) ?x2819))))
(let ((?x3215 (ite $x560 5 (ite $x218 4 (ite $x958 3 (ite $x2083 2 1))))))
(let ((?x415 (ite $x3057 9 (ite $x742 8 (ite $x1253 7 (ite $x774 6 ?x3215))))))
(let ((?x626 (ite $x541 12 (ite $x3162 11 (ite $x2174 10 ?x415)))))
(let ((?x1429 (- (+ ?x626 0) 1)))
(let ((?x654 (+ (mod ?x1429 12) 1)))
(let ((?x831 (ite (or (= ?x654 4) (= ?x654 6) (= ?x654 9) (= ?x654 11)) 30 31)))
(let (($x290 (and (= (mod (+ (+ ?x892 0) (div ?x1429 12)) 4) 0) (and (distinct (mod (+ (+ ?x892 0) (div ?x1429 12)) 100) 0) true))))
(let (($x1258 (or $x290 (= (mod (+ (+ ?x892 0) (div ?x1429 12)) 400) 0))))
(let ((?x1904 (ite (= ?x654 2) (ite $x1258 29 28) ?x831)))
(let (($x396 (> 1 ?x411)))
(let ((?x3343 (ite (= 2 ?x654) (ite $x1258 31 31) (ite (= 1 ?x654) (ite $x1258 0 0) 0))))
(let ((?x479 (ite (= 4 ?x654) (ite $x1258 91 90) (ite (= 3 ?x654) (ite $x1258 60 59) ?x3343))))
(let ((?x3141 (ite (= 6 ?x654) (ite $x1258 152 151) (ite (= 5 ?x654) (ite $x1258 121 120) ?x479))))
(let ((?x625 (ite (= 8 ?x654) (ite $x1258 213 212) (ite (= 7 ?x654) (ite $x1258 182 181) ?x3141))))
(let ((?x1239 (ite (= 10 ?x654) (ite $x1258 274 273) (ite (= 9 ?x654) (ite $x1258 244 243) ?x625))))
(let ((?x3277 (ite (= 12 ?x654) (ite $x1258 335 334) (ite (= 11 ?x654) (ite $x1258 305 304) ?x1239))))
(let ((?x461 (+ (* 365 (- (+ (+ ?x892 0) (div ?x1429 12)) 1)) (div (- (+ (+ ?x892 0) (div ?x1429 12)) 1) 4))))
(let ((?x2288 (+ (- ?x461 (div (- (+ (+ ?x892 0) (div ?x1429 12)) 1) 100)) (div (- (+ (+ ?x892 0) (div ?x1429 12)) 1) 400))))
(let ((?x1470 (+ (+ ?x2288 ?x3277) (- (ite $x396 1 (ite (> ?x411 ?x1904) ?x1904 ?x411)) 1))))
(let (($x458 (or (= (+ (mod (- (+ ?x626 1) 1) 12) 1) 4) (= (+ (mod (- (+ ?x626 1) 1) 12) 1) 6) (= (+ (mod (- (+ ?x626 1) 1) 12) 1) 9) (= (+ (mod (- (+ ?x626 1) 1) 12) 1) 11))))
(let (($x408 (= (mod (+ (+ ?x892 0) (div (- (+ ?x626 1) 1) 12)) 400) 0)))
(let (($x310 (and (distinct (mod (+ (+ ?x892 0) (div (- (+ ?x626 1) 1) 12)) 100) 0) true)))
(let (($x657 (= (mod (+ (+ ?x892 0) (div (- (+ ?x626 1) 1) 12)) 4) 0)))
(let (($x319 (or (and $x657 $x310) $x408)))
(let ((?x292 (ite (= (+ (mod (- (+ ?x626 1) 1) 12) 1) 2) (ite $x319 29 28) (ite $x458 30 31))))
(let ((?x300 (ite (= 1 (+ (mod (- (+ ?x626 1) 1) 12) 1)) (ite $x319 0 0) 0)))
(let ((?x693 (ite (= 2 (+ (mod (- (+ ?x626 1) 1) 12) 1)) (ite $x319 31 31) ?x300)))
(let ((?x266 (ite (= 3 (+ (mod (- (+ ?x626 1) 1) 12) 1)) (ite $x319 60 59) ?x693)))
(let ((?x522 (ite (= 4 (+ (mod (- (+ ?x626 1) 1) 12) 1)) (ite $x319 91 90) ?x266)))
(let ((?x1694 (ite (= 5 (+ (mod (- (+ ?x626 1) 1) 12) 1)) (ite $x319 121 120) ?x522)))
(let ((?x555 (ite (= 6 (+ (mod (- (+ ?x626 1) 1) 12) 1)) (ite $x319 152 151) ?x1694)))
(let ((?x2535 (ite (= 7 (+ (mod (- (+ ?x626 1) 1) 12) 1)) (ite $x319 182 181) ?x555)))
(let ((?x450 (ite (= 8 (+ (mod (- (+ ?x626 1) 1) 12) 1)) (ite $x319 213 212) ?x2535)))
(let ((?x828 (ite (= 9 (+ (mod (- (+ ?x626 1) 1) 12) 1)) (ite $x319 244 243) ?x450)))
(let ((?x2632 (ite (= 10 (+ (mod (- (+ ?x626 1) 1) 12) 1)) (ite $x319 274 273) ?x828)))
(let ((?x157 (ite (= 11 (+ (mod (- (+ ?x626 1) 1) 12) 1)) (ite $x319 305 304) ?x2632)))
(let ((?x2757 (ite (= 12 (+ (mod (- (+ ?x626 1) 1) 12) 1)) (ite $x319 335 334) ?x157)))
(let ((?x628 (+ ?x892 0)))
(let ((?x105 (+ ?x628 (div (- (+ ?x626 1) 1) 12))))
(let ((?x583 (- ?x105 1)))
(let ((?x3367 (+ (- (+ (* 365 ?x583) (div ?x583 4)) (div ?x583 100)) (div ?x583 400))))
(let ((?x2415 (+ (+ ?x3367 ?x2757) (- (ite $x396 1 (ite (> ?x411 ?x292) ?x292 ?x411)) 1))))
(> (- (+ ?x2415 0) ?x97) (- (+ ?x1470 31) ?x97))))))))))))))))))))))))))))))))))))))))))))))))))))))))))))))))))))))))))))))))))))))))))))))))))))
(check-sat)
